
ASes= { 1, 2, 3, 4, 5, 6, 7, 8, 9, 10, 11 } ;


Objects= { 1, 2, 3, 4, 5, 6, 7, 8, 9, 10, 11, 12, 13, 14, 15, 16, 17, 18, 19, 20, 21, 22, 23, 24, 25, 26, 27, 28, 29, 30, 31, 32, 33, 34, 35, 36, 37, 38, 39, 40, 41, 42, 43, 44, 45, 46, 47, 48, 49, 50, 51, 52, 53, 54, 55, 56, 57, 58, 59, 60, 61, 62, 63, 64, 65, 66, 67, 68, 69, 70, 71, 72, 73, 74, 75, 76, 77, 78, 79, 80, 81, 82, 83, 84, 85, 86, 87, 88, 89, 90, 91, 92, 93, 94, 95, 96, 97, 98, 99, 100 } ;


QualityLevels= { 0, 1, 2, 3, 4, 5 } ;

Arcs = {<2,1,490000>, <1,2,490000>, <11,1,490000>, <1,11,490000>, <11,2,490000>, <2,11,490000>, <11,10,490000>, <10,11,490000>, <3,2,490000>, <2,3,490000>, <4,3,490000>, <3,4,490000>, <5,4,490000>, <4,5,490000>, <6,5,490000>, <5,6,490000>, <7,6,490000>, <6,7,490000>, <8,4,490000>, <4,8,490000>, <8,7,490000>, <7,8,490000>, <9,3,490000>, <3,9,490000>, <9,8,490000>, <8,9,490000>, <10,9,490000>, <9,10,490000>};


RatePerQuality= [ 0  300  700  1500  2500  3500 ] ;


CacheSpacePerQuality= [ 10000  11.25  26.25  56.25  93.75  131.25 ] ;


UtilityPerQuality= [ 0  0.2  0.4  0.6  0.8  1 ] ;


ObjectsPublishedByProducers=[ [ 0  0  0  0  0  0  0  1  0  0  0 ]  [ 0  0  0  0  0  0  0  1  0  0  0 ]  [ 0  0  0  0  0  0  0  1  0  0  0 ]  [ 0  0  0  0  0  0  0  1  0  0  0 ]  [ 0  0  0  0  0  0  0  1  0  0  0 ]  [ 0  0  0  0  0  0  0  1  0  0  0 ]  [ 0  0  0  0  0  0  0  1  0  0  0 ]  [ 0  0  0  0  0  0  0  1  0  0  0 ]  [ 0  0  0  0  0  0  0  1  0  0  0 ]  [ 0  0  0  0  0  0  0  1  0  0  0 ]  [ 0  0  0  0  0  0  0  1  0  0  0 ]  [ 0  0  0  0  0  0  0  1  0  0  0 ]  [ 0  0  0  0  0  0  0  1  0  0  0 ]  [ 0  0  0  0  0  0  0  1  0  0  0 ]  [ 0  0  0  0  0  0  0  1  0  0  0 ]  [ 0  0  0  0  0  0  0  1  0  0  0 ]  [ 0  0  0  0  0  0  0  1  0  0  0 ]  [ 0  0  0  0  0  0  0  1  0  0  0 ]  [ 0  0  0  0  0  0  0  1  0  0  0 ]  [ 0  0  0  0  0  0  0  1  0  0  0 ]  [ 0  0  0  0  0  0  0  1  0  0  0 ]  [ 0  0  0  0  0  0  0  1  0  0  0 ]  [ 0  0  0  0  0  0  0  1  0  0  0 ]  [ 0  0  0  0  0  0  0  1  0  0  0 ]  [ 0  0  0  0  0  0  0  1  0  0  0 ]  [ 0  0  0  0  0  0  0  1  0  0  0 ]  [ 0  0  0  0  0  0  0  1  0  0  0 ]  [ 0  0  0  0  0  0  0  1  0  0  0 ]  [ 0  0  0  0  0  0  0  1  0  0  0 ]  [ 0  0  0  0  0  0  0  1  0  0  0 ]  [ 0  0  0  0  0  0  0  1  0  0  0 ]  [ 0  0  0  0  0  0  0  1  0  0  0 ]  [ 0  0  0  0  0  0  0  1  0  0  0 ]  [ 0  0  0  0  0  0  0  1  0  0  0 ]  [ 0  0  0  0  0  0  0  1  0  0  0 ]  [ 0  0  0  0  0  0  0  1  0  0  0 ]  [ 0  0  0  0  0  0  0  1  0  0  0 ]  [ 0  0  0  0  0  0  0  1  0  0  0 ]  [ 0  0  0  0  0  0  0  1  0  0  0 ]  [ 0  0  0  0  0  0  0  1  0  0  0 ]  [ 0  0  0  0  0  0  0  1  0  0  0 ]  [ 0  0  0  0  0  0  0  1  0  0  0 ]  [ 0  0  0  0  0  0  0  1  0  0  0 ]  [ 0  0  0  0  0  0  0  1  0  0  0 ]  [ 0  0  0  0  0  0  0  1  0  0  0 ]  [ 0  0  0  0  0  0  0  1  0  0  0 ]  [ 0  0  0  0  0  0  0  1  0  0  0 ]  [ 0  0  0  0  0  0  0  1  0  0  0 ]  [ 0  0  0  0  0  0  0  1  0  0  0 ]  [ 0  0  0  0  0  0  0  1  0  0  0 ]  [ 0  0  0  0  0  0  0  1  0  0  0 ]  [ 0  0  0  0  0  0  0  1  0  0  0 ]  [ 0  0  0  0  0  0  0  1  0  0  0 ]  [ 0  0  0  0  0  0  0  1  0  0  0 ]  [ 0  0  0  0  0  0  0  1  0  0  0 ]  [ 0  0  0  0  0  0  0  1  0  0  0 ]  [ 0  0  0  0  0  0  0  1  0  0  0 ]  [ 0  0  0  0  0  0  0  1  0  0  0 ]  [ 0  0  0  0  0  0  0  1  0  0  0 ]  [ 0  0  0  0  0  0  0  1  0  0  0 ]  [ 0  0  0  0  0  0  0  1  0  0  0 ]  [ 0  0  0  0  0  0  0  1  0  0  0 ]  [ 0  0  0  0  0  0  0  1  0  0  0 ]  [ 0  0  0  0  0  0  0  1  0  0  0 ]  [ 0  0  0  0  0  0  0  1  0  0  0 ]  [ 0  0  0  0  0  0  0  1  0  0  0 ]  [ 0  0  0  0  0  0  0  1  0  0  0 ]  [ 0  0  0  0  0  0  0  1  0  0  0 ]  [ 0  0  0  0  0  0  0  1  0  0  0 ]  [ 0  0  0  0  0  0  0  1  0  0  0 ]  [ 0  0  0  0  0  0  0  1  0  0  0 ]  [ 0  0  0  0  0  0  0  1  0  0  0 ]  [ 0  0  0  0  0  0  0  1  0  0  0 ]  [ 0  0  0  0  0  0  0  1  0  0  0 ]  [ 0  0  0  0  0  0  0  1  0  0  0 ]  [ 0  0  0  0  0  0  0  1  0  0  0 ]  [ 0  0  0  0  0  0  0  1  0  0  0 ]  [ 0  0  0  0  0  0  0  1  0  0  0 ]  [ 0  0  0  0  0  0  0  1  0  0  0 ]  [ 0  0  0  0  0  0  0  1  0  0  0 ]  [ 0  0  0  0  0  0  0  1  0  0  0 ]  [ 0  0  0  0  0  0  0  1  0  0  0 ]  [ 0  0  0  0  0  0  0  1  0  0  0 ]  [ 0  0  0  0  0  0  0  1  0  0  0 ]  [ 0  0  0  0  0  0  0  1  0  0  0 ]  [ 0  0  0  0  0  0  0  1  0  0  0 ]  [ 0  0  0  0  0  0  0  1  0  0  0 ]  [ 0  0  0  0  0  0  0  1  0  0  0 ]  [ 0  0  0  0  0  0  0  1  0  0  0 ]  [ 0  0  0  0  0  0  0  1  0  0  0 ]  [ 0  0  0  0  0  0  0  1  0  0  0 ]  [ 0  0  0  0  0  0  0  1  0  0  0 ]  [ 0  0  0  0  0  0  0  1  0  0  0 ]  [ 0  0  0  0  0  0  0  1  0  0  0 ]  [ 0  0  0  0  0  0  0  1  0  0  0 ]  [ 0  0  0  0  0  0  0  1  0  0  0 ]  [ 0  0  0  0  0  0  0  1  0  0  0 ]  [ 0  0  0  0  0  0  0  1  0  0  0 ]  [ 0  0  0  0  0  0  0  1  0  0  0 ]  [ 0  0  0  0  0  0  0  1  0  0  0 ] ];

ObjRequests = {  <1,5,1208>, <2,5,507>, <3,5,15>, <4,5,136>, <5,5,40>, <6,5,8>, <7,5,98>, <8,5,55>, <9,5,19>, <10,5,217>, <11,5,91>, <12,5,40>, <13,5,98>, <14,5,19>, <15,5,38>, <16,5,9>, <17,5,47>, <18,5,9>, <19,5,12>, <20,5,19>, <21,5,21>, <22,5,20>, <23,5,23>, <24,5,5>, <25,5,44>, <26,5,51>, <27,5,39>, <28,5,25>, <29,5,11>, <30,5,7>, <31,5,17>, <32,5,44>, <33,5,42>, <34,5,2>, <35,5,11>, <36,5,26>, <37,5,14>, <38,5,2>, <39,5,16>, <40,5,11>, <41,5,3>, <42,5,25>, <43,5,13>, <44,5,1>, <45,5,22>, <46,5,20>, <47,5,17>, <48,5,17>, <50,5,19>, <51,5,17>, <52,5,10>, <53,5,2>, <54,5,8>, <55,5,10>, <56,5,9>, <57,5,22>, <59,5,8>, <60,5,1>, <61,5,33>, <62,5,10>, <63,5,5>, <64,5,1>, <65,5,23>, <66,5,2>, <67,5,1>, <68,5,3>, <69,5,4>, <70,5,8>, <71,5,4>, <72,5,1>, <73,5,8>, <74,5,1>, <75,5,2>, <76,5,13>, <77,5,16>, <78,5,2>, <79,5,1>, <80,5,18>, <81,5,1>, <82,5,1>, <83,5,11>, <84,5,17>, <85,5,11>, <87,5,18>, <88,5,3>, <89,5,1>, <90,5,12>, <91,5,18>, <92,5,7>, <93,5,13>, <94,5,1>, <95,5,5>, <96,5,5>, <97,5,6>, <98,5,10>, <100,5,7>, <1,6,743>, <2,6,59>, <3,6,689>, <4,6,312>, <5,6,160>, <6,6,159>, <8,6,129>, <9,6,138>, <10,6,3>, <11,6,60>, <12,6,201>, <13,6,45>, <14,6,71>, <15,6,46>, <16,6,21>, <17,6,70>, <18,6,34>, <19,6,26>, <20,6,31>, <21,6,49>, <22,6,10>, <23,6,8>, <24,6,13>, <25,6,35>, <26,6,1>, <27,6,6>, <28,6,5>, <29,6,39>, <30,6,61>, <31,6,20>, <32,6,5>, <33,6,3>, <34,6,32>, <35,6,27>, <36,6,33>, <37,6,25>, <38,6,30>, <39,6,7>, <40,6,20>, <41,6,1>, <42,6,12>, <43,6,28>, <44,6,11>, <45,6,5>, <46,6,9>, <47,6,10>, <48,6,31>, <49,6,3>, <50,6,40>, <51,6,9>, <52,6,10>, <53,6,13>, <54,6,6>, <55,6,23>, <56,6,12>, <57,6,2>, <58,6,23>, <59,6,19>, <60,6,16>, <61,6,18>, <62,6,10>, <63,6,5>, <64,6,6>, <65,6,15>, <66,6,10>, <67,6,9>, <68,6,12>, <69,6,1>, <70,6,3>, <71,6,2>, <72,6,6>, <73,6,8>, <74,6,13>, <75,6,6>, <76,6,1>, <77,6,14>, <78,6,4>, <79,6,1>, <80,6,6>, <81,6,10>, <82,6,6>, <83,6,7>, <84,6,6>, <85,6,3>, <86,6,2>, <87,6,2>, <88,6,23>, <89,6,18>, <90,6,12>, <91,6,2>, <92,6,4>, <93,6,2>, <94,6,1>, <95,6,3>, <96,6,13>, <97,6,6>, <98,6,20>, <99,6,7>, <100,6,4>, <1,7,32>, <2,7,204>, <3,7,59>, <4,7,251>, <5,7,18>, <6,7,58>, <7,7,22>, <8,7,102>, <9,7,36>, <10,7,19>, <11,7,33>, <12,7,1>, <13,7,57>, <14,7,10>, <15,7,78>, <16,7,63>, <17,7,12>, <18,7,71>, <19,7,4>, <20,7,78>, <21,7,1>, <22,7,52>, <23,7,36>, <24,7,71>, <25,7,29>, <26,7,44>, <27,7,12>, <28,7,53>, <29,7,9>, <30,7,14>, <31,7,8>, <32,7,21>, <35,7,14>, <36,7,18>, <37,7,39>, <38,7,4>, <39,7,33>, <40,7,18>, <42,7,6>, <43,7,7>, <44,7,48>, <45,7,15>, <46,7,13>, <47,7,6>, <48,7,5>, <49,7,56>, <50,7,4>, <51,7,24>, <52,7,3>, <53,7,6>, <54,7,12>, <55,7,11>, <56,7,19>, <57,7,10>, <58,7,21>, <59,7,6>, <60,7,2>, <62,7,13>, <63,7,15>, <64,7,1>, <65,7,11>, <66,7,1>, <67,7,6>, <68,7,5>, <69,7,5>, <70,7,22>, <71,7,25>, <72,7,26>, <73,7,5>, <74,7,27>, <75,7,16>, <76,7,19>, <77,7,3>, <78,7,7>, <80,7,2>, <81,7,5>, <82,7,5>, <83,7,1>, <84,7,2>, <85,7,21>, <86,7,2>, <87,7,9>, <88,7,2>, <89,7,4>, <90,7,9>, <91,7,4>, <92,7,7>, <93,7,6>, <94,7,4>, <95,7,6>, <96,7,8>, <97,7,13>, <98,7,4>, <99,7,16>, <100,7,3>, <1,1,1151>, <2,1,775>, <3,1,198>, <4,1,116>, <5,1,139>, <6,1,9>, <7,1,87>, <8,1,7>, <9,1,151>, <10,1,19>, <11,1,68>, <12,1,33>, <13,1,19>, <14,1,111>, <15,1,2>, <16,1,6>, <17,1,6>, <18,1,1>, <19,1,49>, <20,1,11>, <21,1,42>, <22,1,30>, <23,1,52>, <25,1,9>, <26,1,3>, <27,1,27>, <28,1,10>, <29,1,11>, <30,1,11>, <31,1,24>, <32,1,20>, <33,1,1>, <34,1,29>, <35,1,9>, <36,1,5>, <37,1,29>, <38,1,10>, <39,1,4>, <40,1,14>, <41,1,42>, <42,1,4>, <44,1,12>, <45,1,8>, <46,1,22>, <47,1,20>, <48,1,8>, <49,1,4>, <50,1,4>, <51,1,6>, <52,1,32>, <53,1,41>, <54,1,23>, <55,1,9>, <56,1,13>, <57,1,8>, <58,1,10>, <59,1,26>, <60,1,14>, <61,1,6>, <62,1,5>, <63,1,3>, <64,1,19>, <65,1,1>, <66,1,19>, <67,1,19>, <68,1,19>, <69,1,2>, <70,1,15>, <71,1,9>, <72,1,11>, <73,1,4>, <74,1,2>, <75,1,14>, <76,1,1>, <77,1,1>, <78,1,2>, <79,1,8>, <81,1,13>, <82,1,4>, <83,1,13>, <84,1,3>, <86,1,14>, <87,1,7>, <88,1,1>, <89,1,12>, <90,1,4>, <91,1,11>, <92,1,9>, <93,1,15>, <94,1,22>, <95,1,4>, <96,1,2>, <97,1,3>, <98,1,8>, <99,1,6>, <100,1,19>, <1,10,29>, <2,10,21>, <3,10,99>, <4,10,3>, <5,10,268>, <6,10,281>, <7,10,242>, <8,10,101>, <9,10,24>, <10,10,43>, <11,10,32>, <12,10,10>, <13,10,32>, <14,10,10>, <15,10,35>, <16,10,90>, <17,10,30>, <18,10,51>, <19,10,61>, <20,10,10>, <21,10,52>, <22,10,31>, <23,10,23>, <24,10,17>, <25,10,13>, <26,10,7>, <27,10,32>, <28,10,23>, <29,10,35>, <30,10,12>, <31,10,14>, <32,10,3>, <33,10,58>, <34,10,31>, <35,10,22>, <36,10,1>, <37,10,11>, <38,10,33>, <39,10,14>, <40,10,15>, <41,10,20>, <42,10,33>, <43,10,24>, <44,10,15>, <45,10,22>, <46,10,16>, <47,10,2>, <48,10,20>, <49,10,1>, <51,10,3>, <52,10,15>, <53,10,6>, <54,10,15>, <55,10,4>, <57,10,5>, <58,10,8>, <59,10,2>, <60,10,13>, <61,10,1>, <62,10,10>, <63,10,12>, <64,10,1>, <65,10,1>, <66,10,2>, <67,10,15>, <68,10,9>, <69,10,22>, <70,10,7>, <71,10,1>, <72,10,8>, <73,10,10>, <74,10,3>, <75,10,8>, <76,10,4>, <77,10,3>, <78,10,22>, <79,10,24>, <80,10,2>, <81,10,7>, <82,10,21>, <83,10,6>, <84,10,11>, <85,10,9>, <86,10,10>, <87,10,5>, <88,10,4>, <89,10,2>, <90,10,2>, <91,10,9>, <92,10,2>, <93,10,4>, <94,10,12>, <95,10,7>, <96,10,11>, <97,10,3>, <98,10,4>, <99,10,2>, <100,10,4> };

MaxCacheStorageAtSingleAS= [ 131.25  131.25  131.25  131.25  131.25  131.25  131.25  131.25  131.25  131.25  131.25 ] ;

MaxCacheStorage = 1443.75 ;
SolutionGap = 0.01 ;
